param N:= 4;
param M:= 100;

param nu := 1.0;

param X : 1 2 3 4:=
1 7.0 3.2 4.7 1.4
2 6.4 3.2 4.5 1.5
3 6.9 3.1 4.9 1.5
4 5.5 2.3 4.0 1.3
5 6.5 2.8 4.6 1.5
6 5.7 2.8 4.5 1.3
7 6.3 3.3 4.7 1.6
8 4.9 2.4 3.3 1.0
9 6.6 2.9 4.6 1.3
10 5.2 2.7 3.9 1.4
11 5.0 2.0 3.5 1.0
12 5.9 3.0 4.2 1.5
13 6.0 2.2 4.0 1.0
14 6.1 2.9 4.7 1.4
15 5.6 2.9 3.6 1.3
16 6.7 3.1 4.4 1.4
17 5.6 3.0 4.5 1.5
18 5.8 2.7 4.1 1.0
19 6.2 2.2 4.5 1.5
20 5.6 2.5 3.9 1.1
21 5.9 3.2 4.8 1.8
22 6.1 2.8 4.0 1.3
23 6.3 2.5 4.9 1.5
24 6.1 2.8 4.7 1.2
25 6.4 2.9 4.3 1.3
26 6.6 3.0 4.4 1.4
27 6.8 2.8 4.8 1.4
28 6.7 3.0 5.0 1.7
29 6.0 2.9 4.5 1.5
30 5.7 2.6 3.5 1.0
31 5.5 2.4 3.8 1.1
32 5.5 2.4 3.7 1.0
33 5.8 2.7 3.9 1.2
34 6.0 2.7 5.1 1.6
35 5.4 3.0 4.5 1.5
36 6.0 3.4 4.5 1.6
37 6.7 3.1 4.7 1.5
38 6.3 2.3 4.4 1.3
39 5.6 3.0 4.1 1.3
40 5.5 2.5 4.0 1.3
41 5.5 2.6 4.4 1.2
42 6.1 3.0 4.6 1.4
43 5.8 2.6 4.0 1.2
44 5.0 2.3 3.3 1.0
45 5.6 2.7 4.2 1.3
46 5.7 3.0 4.2 1.2
47 5.7 2.9 4.2 1.3
48 6.2 2.9 4.3 1.3
49 5.1 2.5 3.0 1.1
50 5.7 2.8 4.1 1.3
51 6.3 3.3 6.0 2.5
52 5.8 2.7 5.1 1.9
53 7.1 3.0 5.9 2.1
54 6.3 2.9 5.6 1.8
55 6.5 3.0 5.8 2.2
56 7.6 3.0 6.6 2.1
57 4.9 2.5 4.5 1.7
58 7.3 2.9 6.3 1.8
59 6.7 2.5 5.8 1.8
60 7.2 3.6 6.1 2.5
61 6.5 3.2 5.1 2.0
62 6.4 2.7 5.3 1.9
63 6.8 3.0 5.5 2.1
64 5.7 2.5 5.0 2.0
65 5.8 2.8 5.1 2.4
66 6.4 3.2 5.3 2.3
67 6.5 3.0 5.5 1.8
68 7.7 3.8 6.7 2.2
69 7.7 2.6 6.9 2.3
70 6.0 2.2 5.0 1.5
71 6.9 3.2 5.7 2.3
72 5.6 2.8 4.9 2.0
73 7.7 2.8 6.7 2.0
74 6.3 2.7 4.9 1.8
75 6.7 3.3 5.7 2.1
76 7.2 3.2 6.0 1.8
77 6.2 2.8 4.8 1.8
78 6.1 3.0 4.9 1.8
79 6.4 2.8 5.6 2.1
80 7.2 3.0 5.8 1.6
81 7.4 2.8 6.1 1.9
82 7.9 3.8 6.4 2.0
83 6.4 2.8 5.6 2.2
84 6.3 2.8 5.1 1.5
85 6.1 2.6 5.6 1.4
86 7.7 3.0 6.1 2.3
87 6.3 3.4 5.6 2.4
88 6.4 3.1 5.5 1.8
89 6.0 3.0 4.8 1.8
90 6.9 3.1 5.4 2.1
91 6.7 3.1 5.6 2.4
92 6.9 3.1 5.1 2.3
93 5.8 2.7 5.1 1.9
94 6.8 3.2 5.9 2.3
95 6.7 3.3 5.7 2.5
96 6.7 3.0 5.2 2.3
97 6.3 2.5 5.0 1.9
98 6.5 3.0 5.2 2.0
99 6.2 3.4 5.4 2.3
100 5.9 3.0 5.1 1.8
;

param y :=
1 -1.0
2 -1.0
3 -1.0
4 -1.0
5 -1.0
6 -1.0
7 -1.0
8 -1.0
9 -1.0
10 -1.0
11 -1.0
12 -1.0
13 -1.0
14 -1.0
15 -1.0
16 -1.0
17 -1.0
18 -1.0
19 -1.0
20 -1.0
21 -1.0
22 -1.0
23 -1.0
24 -1.0
25 -1.0
26 -1.0
27 -1.0
28 -1.0
29 -1.0
30 -1.0
31 -1.0
32 -1.0
33 -1.0
34 -1.0
35 -1.0
36 -1.0
37 -1.0
38 -1.0
39 -1.0
40 -1.0
41 -1.0
42 -1.0
43 -1.0
44 -1.0
45 -1.0
46 -1.0
47 -1.0
48 -1.0
49 -1.0
50 -1.0
51 1.0
52 1.0
53 1.0
54 1.0
55 1.0
56 1.0
57 1.0
58 1.0
59 1.0
60 1.0
61 1.0
62 1.0
63 1.0
64 1.0
65 1.0
66 1.0
67 1.0
68 1.0
69 1.0
70 1.0
71 1.0
72 1.0
73 1.0
74 1.0
75 1.0
76 1.0
77 1.0
78 1.0
79 1.0
80 1.0
81 1.0
82 1.0
83 1.0
84 1.0
85 1.0
86 1.0
87 1.0
88 1.0
89 1.0
90 1.0
91 1.0
92 1.0
93 1.0
94 1.0
95 1.0
96 1.0
97 1.0
98 1.0
99 1.0
100 1.0
;

